(set-logic HORN)
(declare-fun state (Int (Array Int Int) (Array Int Int) (Array Int Int) (Array Int Int) Int Int (Array Int Int) (Array Int Int) Int Int Int Int Int Int Int Int Int Int Int Int Bool Bool Bool Bool Bool (Array Int Int)) Bool)
(assert (forall ((|A_24| Int) (|B_24| (Array Int Int)) (|C_24| (Array Int Int)) (|D_24| (Array Int Int)) (|E_24| (Array Int Int)) (|F_24| Int) (|G_24| Int) (|H_24| (Array Int Int)) (|I_24| (Array Int Int)) (|J_24| Int) (|K_24| Int) (|L_24| Int) (|M_24| Int) (|N_24| Int) (|O_24| Int) (|P_24| Int) (|Q_24| Int) (|R_24| Int) (|S_24| Int) (|T_24| Int) (|U_24| Int) (|W_12| Bool) (|.loc.5| Bool) (|.loc.6| Bool) (|.loc.7| Bool) (|.loc.8| Bool) (|W_0| (Array Int Int)) (|.x.529| Int) (|.x.527| (Array Int Int)) (|.x.525| Int) (|.x.523| (Array Int Int)) (|.x.519| Int) (|.x.521| (Array Int Int)) (|.x.520| (Array Int Int)) (|V_24| Bool) (|.x.530| Int) (|.x.531| Int) (|.x.532| Int) (|.x.534| Int) (|.loc.10| Bool) (|.x.535| Int) (|.x.533| Int) (|.x.538| Int) (|.loc.11| Bool) (|.loc.9| Bool) (|.x.539| Int) (|.x.537| Int) (|.x.536| Int) (|.x.522| (Array Int Int)) (|.loc.12| Bool) (|.x.528| Int) (|.x.524| Int) (|.x.526| (Array Int Int)) (|.xtv.1| (Array Int Int))) (=> (and (and (and (and .loc.5 (not .loc.6)) (not .loc.7)) (not .loc.8)) (and (and (and (and (and (= D_24 E_24) (not W_12)) (= F_24 G_24)) (= J_24 K_24)) (= H_24 I_24)) (= B_24 C_24))) (state |A_24| |B_24| |C_24| |D_24| |E_24| |F_24| |G_24| |H_24| |I_24| |J_24| |K_24| |L_24| |M_24| |N_24| |O_24| |P_24| |Q_24| |R_24| |S_24| |T_24| |U_24| |W_12| |.loc.5| |.loc.6| |.loc.7| |.loc.8| |W_0|))))
(assert (forall ((|A_24| Int) (|B_24| (Array Int Int)) (|C_24| (Array Int Int)) (|D_24| (Array Int Int)) (|E_24| (Array Int Int)) (|F_24| Int) (|G_24| Int) (|H_24| (Array Int Int)) (|I_24| (Array Int Int)) (|J_24| Int) (|K_24| Int) (|L_24| Int) (|M_24| Int) (|N_24| Int) (|O_24| Int) (|P_24| Int) (|Q_24| Int) (|R_24| Int) (|S_24| Int) (|T_24| Int) (|U_24| Int) (|W_12| Bool) (|.loc.5| Bool) (|.loc.6| Bool) (|.loc.7| Bool) (|.loc.8| Bool) (|W_0| (Array Int Int)) (|.x.529| Int) (|.x.527| (Array Int Int)) (|.x.525| Int) (|.x.523| (Array Int Int)) (|.x.519| Int) (|.x.521| (Array Int Int)) (|.x.520| (Array Int Int)) (|V_24| Bool) (|.x.530| Int) (|.x.531| Int) (|.x.532| Int) (|.x.534| Int) (|.loc.10| Bool) (|.x.535| Int) (|.x.533| Int) (|.x.538| Int) (|.loc.11| Bool) (|.loc.9| Bool) (|.x.539| Int) (|.x.537| Int) (|.x.536| Int) (|.x.522| (Array Int Int)) (|.loc.12| Bool) (|.x.528| Int) (|.x.524| Int) (|.x.526| (Array Int Int)) (|.xtv.1| (Array Int Int))) (=> (and (state |A_24| |B_24| |C_24| |D_24| |E_24| |F_24| |G_24| |H_24| |I_24| |J_24| |K_24| |L_24| |M_24| |N_24| |O_24| |P_24| |Q_24| |R_24| |S_24| |T_24| |U_24| |W_12| |.loc.5| |.loc.6| |.loc.7| |.loc.8| |W_0|) (let ((.def_37 (not .loc.6))) (let ((.def_39 (not .loc.7))) (let ((.def_41 (not .loc.8))) (let ((.def_73 (= B_24 .x.520))) (let ((.def_77 (= L_24 .x.530))) (let ((.def_80 (= M_24 .x.531))) (let ((.def_83 (= N_24 .x.532))) (let ((.def_86 (= P_24 .x.534))) (let ((.def_88 (not .loc.5))) (let ((.def_99 (= W_12 V_24))) (let ((.def_107 (= O_24 0))) (let ((.def_111 (and .def_83 (and .def_80 (and .def_73 .def_77))))) (let ((.def_112 (and .def_86 .def_111))) (let ((.def_116 (not .loc.10))) (let ((.def_122 (= Q_24 .x.535))) (let ((.def_124 (= O_24 .x.533))) (let ((.def_127 (= T_24 .x.538))) (let ((.def_132 (not .loc.9))) (let ((.def_139 (select D_24 N_24))) (let ((.def_143 (<= 100000 U_24))) (let ((.def_160 (not .loc.11))) (let ((.def_165 (= U_24 .x.539))) (let ((.def_167 (= S_24 .x.537))) (let ((.def_177 (and .def_86 (and .def_111 .def_124)))) (let ((.def_193 (and .def_127 (and .def_167 (and .def_122 .def_177))))) (let ((.def_204 (and W_12 .def_73))) (let ((.def_213 (and .def_165 (and .def_127 (and .def_167 (and .def_122 (and .def_86 (and .def_124 (and .def_83 (and .def_80 (and .def_77 .def_204))))))))))) (let ((.def_224 (and .def_165 .def_193))) (let ((.def_225 (and .loc.6 .def_224))) (let ((.def_246 (and .def_37 (and .def_88 (and .loc.8 .def_224))))) (let ((.def_252 (<= 100000 R_24))) (let ((.def_253 (or W_12 .def_252))) (let ((.def_257 (= R_24 .x.536))) (let ((.def_259 (= D_24 .x.522))) (let ((.def_263 (+ M_24 (* 4 R_24)))) (let ((.def_272 (and (not .def_252) (= (+ R_24 (* (- 1) .x.536)) (- 1))))) (let ((.def_292 (and .def_122 (and .def_86 (and .def_124 (and .def_83 (and .def_80 (and .def_77 (and .def_73 .def_259))))))))) (let ((.def_296 (and .def_165 (and .def_127 (and .def_167 (and .def_257 .def_292)))))) (let ((.def_305 (not .loc.12))) (let ((.def_319 (and .def_165 (and .def_127 (and .def_167 (and .def_257 (and .def_122 (and .def_86 (and .def_124 (and .def_83 (and .def_80 (and .def_77 (and .def_204 .def_259))))))))))))) (let ((.def_320 (and .loc.7 .def_319))) (let ((.def_333 (and .loc.5 (and .def_165 (and .def_127 (and .def_167 .def_292)))))) (let ((.def_334 (and .loc.6 .def_333))) (let ((.def_342 (= .x.536 0))) (let ((.def_343 (or W_12 .def_342))) (let ((.def_346 (and .loc.6 .def_319))) (let ((.def_356 (and .loc.6 .def_296))) (and (and (= K_24 .x.529) (and (= I_24 .x.527) (and (= G_24 .x.525) (and (= E_24 .x.523) (and (= A_24 .x.519) (= C_24 .x.521)))))) (or (and (or (or (or (or (or (or (or (or (or (or (or (or (or (or (and (or (and (or (or (or (or (or (or (and (or (and (or (and (or (and (and (and (and (and (and .def_73 V_24) .def_77) .def_80) .def_83) .def_86) .def_88) (and (or W_12 (and (= .x.534 0) (= .x.520 (store B_24 N_24 0)))) (and (and .loc.5 (or V_24 (= .x.530 .x.534))) .def_99))) (and (and .loc.7 .def_37) .loc.10)) (and (or W_12 .def_107) (and .def_39 (and (and .def_99 (and .loc.6 (and .loc.5 .def_112))) .def_116)))) (and (and (and (and .def_122 .def_124) .def_127) .loc.11) .def_132)) (and (or W_12 (and (= .x.533 .x.538) (and (= .x.535 (select .def_139 (+ M_24 (* 4 U_24)))) (and (not .def_143) (= .x.538 (ite (= .x.535 46) 1 0)))))) (and (and .def_39 (and .def_99 (and .loc.10 (and .loc.9 (and .def_88 (and .loc.6 .def_112)))))) .def_160))) (and .loc.8 (and .def_165 .def_167))) (and (or V_24 (= (+ U_24 (* (- 1) .x.539)) (- 1))) (and .def_41 (and .def_160 (and .def_39 (and .def_99 (and .def_132 (and .loc.10 (and .def_37 (and .def_88 (and .def_127 .def_177))))))))))) (and (or W_12 (= .x.539 0)) (and .def_160 (and .def_39 (and .def_99 (and .def_132 (and .loc.10 (and .def_37 (and .loc.8 (and .loc.5 .def_193)))))))))) (and .def_39 (and .def_116 (and .def_99 (and .loc.11 (and .loc.9 (and .def_88 (and .loc.8 (and .loc.6 .def_213))))))))) (and (or W_12 .def_143) (and .def_39 (and .def_116 (and .def_99 (and .loc.11 (and .loc.9 (and .def_88 (and .loc.8 .def_225))))))))) (and .def_160 (and .def_39 (and .def_116 (and .def_99 (and .loc.9 (and .def_37 (and .def_88 (and .loc.8 .def_213))))))))) (and (and .def_160 (and .def_39 (and .def_116 (and .def_99 (and .loc.9 .def_246))))) .def_253)) (and .def_257 .def_259)) (and (or W_12 (and (= .x.522 (store D_24 N_24 (store .def_139 .def_263 45))) .def_272)) (and .def_160 (and .def_39 (and .def_116 (and .def_99 (and .def_132 .def_246))))))) .loc.12) (and (or W_12 (not .def_107)) (and (and .def_160 (and .def_39 (and .def_116 (and .def_99 (and .def_132 (and .loc.8 (and .loc.6 (and .loc.5 .def_296)))))))) .def_305))) (and .def_305 (and .def_160 (and .def_116 (and .def_99 (and .def_132 (and .def_37 (and .def_88 (and .loc.8 .def_320))))))))) (and (and .def_41 (and .def_160 (and .def_116 (and .def_99 (and .def_132 (and .loc.12 (and .loc.7 .def_334))))))) .def_343)) (and .def_305 (and .def_41 (and .def_99 (and .loc.11 (and .loc.10 (and .loc.9 (and .def_88 (and .loc.7 .def_346))))))))) (and .def_305 (and .def_253 (and .def_41 (and .def_99 (and .loc.11 (and .loc.10 (and .loc.9 (and .def_88 (and .loc.7 .def_356)))))))))) (and (or W_12 (and .def_272 (= .x.522 (store D_24 N_24 (store .def_139 .def_263 44))))) (and .def_305 (and .def_41 (and .def_99 (and .def_132 (and .loc.11 (and .loc.10 (and .def_88 (and .loc.7 .def_225)))))))))) (and .def_343 (and .def_305 (and .def_41 (and .def_99 (and .def_132 (and .loc.11 (and .loc.10 (and .def_37 (and .loc.7 .def_333)))))))))) (and .def_305 (and .def_41 (and .def_116 (and .def_99 (and .loc.11 (and .loc.9 (and .def_37 (and .def_88 .def_320))))))))) (and .def_305 (and .def_253 (and .def_41 (and .def_116 (and .def_99 (and .loc.11 (and .loc.9 (and .def_37 (and .def_88 (and .loc.7 .def_296))))))))))) (and (or W_12 (and .def_272 (= .x.522 (store D_24 N_24 (store .def_139 .def_263 43))))) (and .def_305 (and .def_41 (and .def_116 (and .def_99 (and .def_132 (and .loc.11 (and .def_37 (and .def_88 (and .loc.7 .def_224))))))))))) (and .def_343 (and .def_305 (and .def_41 (and .def_39 (and .def_116 (and .def_99 (and .def_132 (and .loc.11 .def_334))))))))) (and .def_305 (and .def_41 (and .def_160 (and .def_39 (and .def_99 (and .loc.10 (and .loc.9 (and .def_88 .def_346))))))))) (and .def_305 (and .def_253 (and .def_41 (and .def_160 (and .def_39 (and .def_99 (and .loc.10 (and .loc.9 (and .def_88 .def_356)))))))))) (and (or W_12 (and .def_272 (= .x.522 (store D_24 N_24 (store .def_139 .def_263 42))))) (and .def_305 (and .def_41 (and .def_160 (and .def_39 (and .def_99 (and .def_132 (and .loc.10 (and .def_88 .def_225)))))))))) (and (= J_24 .x.528) (and (= F_24 .x.524) (= H_24 .x.526)))) (and (or W_12 (and (and (= .x.528 0) (= .x.524 0)) (= W_0 (store B_24 0 0)))) (and (or V_24 (and (and (and (and (and (and .def_342 (not (<= .x.519 .x.532))) (not (= .x.532 0))) (= .x.531 0)) (= (select W_0 .x.532) 0)) (= .x.526 (store H_24 .x.532 400000))) (= .x.520 (store W_0 .x.532 1)))) (and .def_305 (and .def_41 (and .def_160 (and .def_39 (and .def_99 (and .def_132 (and .loc.10 (and .def_37 (and .loc.5 (and .def_127 (and .def_124 (and .def_77 .def_259)))))))))))))))))))))))))))))))))))))))))))))))))))))))))))))))) (state |.x.519| |.x.520| |.x.521| |.x.522| |.x.523| |.x.524| |.x.525| |.x.526| |.x.527| |.x.528| |.x.529| |.x.530| |.x.531| |.x.532| |.x.533| |.x.534| |.x.535| |.x.536| |.x.537| |.x.538| |.x.539| |V_24| |.loc.9| |.loc.10| |.loc.11| |.loc.12| |.xtv.1|))))
(assert (forall ((|A_24| Int) (|B_24| (Array Int Int)) (|C_24| (Array Int Int)) (|D_24| (Array Int Int)) (|E_24| (Array Int Int)) (|F_24| Int) (|G_24| Int) (|H_24| (Array Int Int)) (|I_24| (Array Int Int)) (|J_24| Int) (|K_24| Int) (|L_24| Int) (|M_24| Int) (|N_24| Int) (|O_24| Int) (|P_24| Int) (|Q_24| Int) (|R_24| Int) (|S_24| Int) (|T_24| Int) (|U_24| Int) (|W_12| Bool) (|.loc.5| Bool) (|.loc.6| Bool) (|.loc.7| Bool) (|.loc.8| Bool) (|W_0| (Array Int Int)) (|.x.529| Int) (|.x.527| (Array Int Int)) (|.x.525| Int) (|.x.523| (Array Int Int)) (|.x.519| Int) (|.x.521| (Array Int Int)) (|.x.520| (Array Int Int)) (|V_24| Bool) (|.x.530| Int) (|.x.531| Int) (|.x.532| Int) (|.x.534| Int) (|.loc.10| Bool) (|.x.535| Int) (|.x.533| Int) (|.x.538| Int) (|.loc.11| Bool) (|.loc.9| Bool) (|.x.539| Int) (|.x.537| Int) (|.x.536| Int) (|.x.522| (Array Int Int)) (|.loc.12| Bool) (|.x.528| Int) (|.x.524| Int) (|.x.526| (Array Int Int)) (|.xtv.1| (Array Int Int))) (=> (state |A_24| |B_24| |C_24| |D_24| |E_24| |F_24| |G_24| |H_24| |I_24| |J_24| |K_24| |L_24| |M_24| |N_24| |O_24| |P_24| |Q_24| |R_24| |S_24| |T_24| |U_24| |W_12| |.loc.5| |.loc.6| |.loc.7| |.loc.8| |W_0|) (not (and W_12 (and .loc.8 (and .loc.7 (and .loc.6 (not .loc.5)))))))))
(check-sat)
